DIMACS_lns/graph-1000-698.col
p edge 1000 1807
e 1 635
e 1 262
e 1 869
e 1 186
e 2 859
e 2 27
e 2 599
e 2 1000
e 3 183
e 3 416
e 3 735
e 3 920
e 3 414
e 3 911
e 3 55
e 4 657
e 4 56
e 4 169
e 4 774
e 5 755
e 5 434
e 5 376
e 5 461
e 5 860
e 5 941
e 7 258
e 7 253
e 7 721
e 7 348
e 10 360
e 10 140
e 10 126
e 10 358
e 10 700
e 11 455
e 11 240
e 11 805
e 11 38
e 12 101
e 12 455
e 12 726
e 12 774
e 13 690
e 13 611
e 13 239
e 13 326
e 13 343
e 14 55
e 14 39
e 14 426
e 14 910
e 14 350
e 14 773
e 16 728
e 16 670
e 16 468
e 16 61
e 16 292
e 16 397
e 16 21
e 17 951
e 17 463
e 17 635
e 17 681
e 17 312
e 17 657
e 17 787
e 17 654
e 17 851
e 18 519
e 18 494
e 18 647
e 18 431
e 18 851
e 18 916
e 18 605
e 20 954
e 20 634
e 20 291
e 20 856
e 20 539
e 20 545
e 21 276
e 21 535
e 21 575
e 21 718
e 21 807
e 21 886
e 21 208
e 21 130
e 21 797
e 22 475
e 22 700
e 22 923
e 22 901
e 22 532
e 24 861
e 24 475
e 24 751
e 24 491
e 24 116
e 26 146
e 26 107
e 26 354
e 26 992
e 27 463
e 27 543
e 27 844
e 27 115
e 27 587
e 28 176
e 28 331
e 28 662
e 28 915
e 29 935
e 29 438
e 29 48
e 29 879
e 29 429
e 30 960
e 30 711
e 30 312
e 30 806
e 31 299
e 31 458
e 31 727
e 31 240
e 31 866
e 31 657
e 31 82
e 32 242
e 32 170
e 32 189
e 33 506
e 33 401
e 33 360
e 33 999
e 34 484
e 34 353
e 34 410
e 34 948
e 34 660
e 35 987
e 35 347
e 35 811
e 35 87
e 35 808
e 35 509
e 35 631
e 36 942
e 36 458
e 36 261
e 37 485
e 37 222
e 37 324
e 37 577
e 37 612
e 37 824
e 37 927
e 38 580
e 38 726
e 38 573
e 38 895
e 38 797
e 38 193
e 39 572
e 39 236
e 39 316
e 40 334
e 40 878
e 40 436
e 43 302
e 43 169
e 43 753
e 43 751
e 43 535
e 43 122
e 45 945
e 45 709
e 45 772
e 45 171
e 45 712
e 46 162
e 46 702
e 46 285
e 48 444
e 48 128
e 48 590
e 49 834
e 49 961
e 49 423
e 49 678
e 49 924
e 50 239
e 50 127
e 50 292
e 51 177
e 51 751
e 51 671
e 51 856
e 51 434
e 53 927
e 53 276
e 53 657
e 53 462
e 53 54
e 53 173
e 53 632
e 54 712
e 54 223
e 54 713
e 54 933
e 55 746
e 56 532
e 56 410
e 58 196
e 58 421
e 58 114
e 58 786
e 58 726
e 59 358
e 59 617
e 59 398
e 60 806
e 60 574
e 60 554
e 60 693
e 61 449
e 61 160
e 62 251
e 62 242
e 62 766
e 62 255
e 63 804
e 63 729
e 63 915
e 63 901
e 63 396
e 64 958
e 64 909
e 64 431
e 64 695
e 64 165
e 64 142
e 64 713
e 64 444
e 65 285
e 65 561
e 65 801
e 66 553
e 66 603
e 66 978
e 66 648
e 66 357
e 66 205
e 66 459
e 67 532
e 67 610
e 67 422
e 70 553
e 70 317
e 70 500
e 70 256
e 70 98
e 70 215
e 71 357
e 71 548
e 71 849
e 71 329
e 71 632
e 73 920
e 73 933
e 73 774
e 73 393
e 73 399
e 73 269
e 74 135
e 74 804
e 74 716
e 76 160
e 76 534
e 76 151
e 78 613
e 78 573
e 78 856
e 78 377
e 82 177
e 82 503
e 82 688
e 82 981
e 83 326
e 83 301
e 83 627
e 84 492
e 84 87
e 84 233
e 84 494
e 85 532
e 85 976
e 85 334
e 85 360
e 85 104
e 85 618
e 86 497
e 86 425
e 86 511
e 87 206
e 87 634
e 87 814
e 87 981
e 88 432
e 88 968
e 88 206
e 88 900
e 88 804
e 88 180
e 89 485
e 89 379
e 89 166
e 90 151
e 90 150
e 90 625
e 90 796
e 91 481
e 91 245
e 91 537
e 91 381
e 92 999
e 92 505
e 92 778
e 93 977
e 93 597
e 93 372
e 93 750
e 94 229
e 94 204
e 94 226
e 96 773
e 96 403
e 96 916
e 97 316
e 97 204
e 97 447
e 98 660
e 98 271
e 98 975
e 98 760
e 100 152
e 100 841
e 100 801
e 100 463
e 100 165
e 100 330
e 100 258
e 100 563
e 100 746
e 101 770
e 101 197
e 101 462
e 101 786
e 103 490
e 103 751
e 103 635
e 103 551
e 104 477
e 104 361
e 104 380
e 104 272
e 105 194
e 105 333
e 105 953
e 106 978
e 106 507
e 106 906
e 106 768
e 106 329
e 107 779
e 107 443
e 107 655
e 110 428
e 110 291
e 110 684
e 110 539
e 110 983
e 110 652
e 112 421
e 112 728
e 112 270
e 113 778
e 113 800
e 113 762
e 113 167
e 113 669
e 113 542
e 114 924
e 114 688
e 114 818
e 115 558
e 115 750
e 115 850
e 116 303
e 116 983
e 116 294
e 117 815
e 117 844
e 117 191
e 118 352
e 118 836
e 118 528
e 121 832
e 121 173
e 121 312
e 121 759
e 122 826
e 122 180
e 123 313
e 123 332
e 123 359
e 126 194
e 126 374
e 126 800
e 126 988
e 126 605
e 126 954
e 126 952
e 127 714
e 127 905
e 127 482
e 127 331
e 128 344
e 128 787
e 129 953
e 129 798
e 129 176
e 130 508
e 130 945
e 130 445
e 130 147
e 130 759
e 131 417
e 131 316
e 131 415
e 131 596
e 131 326
e 131 606
e 135 749
e 135 618
e 135 326
e 135 335
e 136 970
e 136 918
e 136 751
e 136 852
e 138 442
e 138 602
e 138 321
e 140 306
e 140 936
e 140 821
e 140 627
e 142 171
e 142 683
e 142 228
e 142 789
e 143 858
e 143 574
e 143 463
e 143 994
e 144 736
e 144 927
e 144 281
e 145 935
e 145 446
e 145 213
e 146 639
e 146 332
e 147 244
e 147 183
e 148 808
e 148 408
e 148 992
e 148 165
e 148 434
e 148 863
e 149 185
e 149 458
e 149 741
e 149 842
e 150 906
e 150 253
e 150 878
e 150 744
e 151 884
e 152 506
e 152 482
e 152 857
e 152 263
e 152 229
e 152 303
e 152 432
e 154 671
e 154 952
e 154 339
e 154 683
e 154 310
e 154 402
e 154 743
e 155 405
e 155 374
e 155 821
e 155 720
e 155 925
e 155 673
e 155 988
e 157 233
e 157 355
e 157 270
e 157 927
e 157 792
e 158 644
e 158 533
e 158 404
e 159 392
e 159 532
e 159 482
e 159 271
e 160 788
e 160 509
e 160 951
e 161 348
e 161 680
e 161 602
e 161 739
e 162 765
e 162 925
e 162 377
e 162 867
e 164 438
e 164 444
e 164 429
e 165 426
e 165 882
e 165 945
e 165 1000
e 166 957
e 166 425
e 166 423
e 166 863
e 167 204
e 167 801
e 167 545
e 167 727
e 167 590
e 167 373
e 169 683
e 169 217
e 169 526
e 169 744
e 170 507
e 170 411
e 170 531
e 170 287
e 171 215
e 171 445
e 172 574
e 172 738
e 172 578
e 172 179
e 172 996
e 172 774
e 172 607
e 173 371
e 173 865
e 176 336
e 176 976
e 177 638
e 177 307
e 177 453
e 177 272
e 177 631
e 177 282
e 178 850
e 178 649
e 178 815
e 178 351
e 178 794
e 179 941
e 179 901
e 179 824
e 179 572
e 180 746
e 183 683
e 183 583
e 184 665
e 184 819
e 184 392
e 184 372
e 184 841
e 185 915
e 185 421
e 186 734
e 186 811
e 186 823
e 187 188
e 187 261
e 187 574
e 188 372
e 188 322
e 188 872
e 188 477
e 189 996
e 189 467
e 189 371
e 190 882
e 190 946
e 190 679
e 191 564
e 191 194
e 191 344
e 191 863
e 191 620
e 191 213
e 193 202
e 193 261
e 194 457
e 194 545
e 196 263
e 196 574
e 196 411
e 197 275
e 197 814
e 197 412
e 197 205
e 198 598
e 198 307
e 198 708
e 198 340
e 200 760
e 200 201
e 200 256
e 200 709
e 200 607
e 200 822
e 200 655
e 201 668
e 201 706
e 202 872
e 202 612
e 204 584
e 204 444
e 204 942
e 204 818
e 204 599
e 205 979
e 205 739
e 205 980
e 205 606
e 206 602
e 206 274
e 206 665
e 206 354
e 206 901
e 206 472
e 206 381
e 206 229
e 208 448
e 208 594
e 209 408
e 209 420
e 209 679
e 210 532
e 210 886
e 210 386
e 210 708
e 211 531
e 211 397
e 211 347
e 213 711
e 213 228
e 213 664
e 213 795
e 214 611
e 214 496
e 214 331
e 214 998
e 214 252
e 215 286
e 215 612
e 215 626
e 215 572
e 215 989
e 217 491
e 217 889
e 217 281
e 218 575
e 218 307
e 218 726
e 221 839
e 221 376
e 221 617
e 221 619
e 222 810
e 222 459
e 222 925
e 223 674
e 223 535
e 223 261
e 224 226
e 224 858
e 224 631
e 224 368
e 224 307
e 225 917
e 225 965
e 225 329
e 225 666
e 226 620
e 226 336
e 226 850
e 226 604
e 226 900
e 227 401
e 227 968
e 227 255
e 227 943
e 228 527
e 228 877
e 228 442
e 229 676
e 229 605
e 232 722
e 232 649
e 232 886
e 232 286
e 233 278
e 233 851
e 236 589
e 236 575
e 236 342
e 236 251
e 236 955
e 236 436
e 237 933
e 237 631
e 237 942
e 237 807
e 237 742
e 238 522
e 238 807
e 238 322
e 238 267
e 239 390
e 239 773
e 239 999
e 239 610
e 239 447
e 240 999
e 240 980
e 240 889
e 240 527
e 240 564
e 242 414
e 242 252
e 242 941
e 243 503
e 243 508
e 243 635
e 243 815
e 243 443
e 244 475
e 244 652
e 244 519
e 244 941
e 245 398
e 245 478
e 245 491
e 245 901
e 246 702
e 246 668
e 246 643
e 246 731
e 248 481
e 248 355
e 248 779
e 248 814
e 251 600
e 251 894
e 251 858
e 252 684
e 252 445
e 252 868
e 252 846
e 252 646
e 253 499
e 253 425
e 253 490
e 254 558
e 254 387
e 254 494
e 254 801
e 255 497
e 255 321
e 256 636
e 256 858
e 258 875
e 258 603
e 259 617
e 259 600
e 259 428
e 259 597
e 261 917
e 262 440
e 262 415
e 262 270
e 262 706
e 263 399
e 263 836
e 265 645
e 265 543
e 265 416
e 267 306
e 267 895
e 267 344
e 267 762
e 269 465
e 269 712
e 270 800
e 270 743
e 270 306
e 271 562
e 271 526
e 271 414
e 272 328
e 272 617
e 272 284
e 272 688
e 273 309
e 273 412
e 273 910
e 273 340
e 273 761
e 274 278
e 274 501
e 274 613
e 274 463
e 274 936
e 275 624
e 275 447
e 275 709
e 276 814
e 276 738
e 276 395
e 276 988
e 277 795
e 277 854
e 277 559
e 278 492
e 278 773
e 278 726
e 280 361
e 280 857
e 280 681
e 281 333
e 281 345
e 281 344
e 281 613
e 282 695
e 282 595
e 282 596
e 282 896
e 282 626
e 282 432
e 282 711
e 282 561
e 284 380
e 284 368
e 284 761
e 284 743
e 284 578
e 284 437
e 284 528
e 285 393
e 285 348
e 286 459
e 286 971
e 286 661
e 286 527
e 287 509
e 287 451
e 287 690
e 287 958
e 287 807
e 287 979
e 287 692
e 287 896
e 288 592
e 288 477
e 288 860
e 288 483
e 290 942
e 290 561
e 290 941
e 291 452
e 291 774
e 292 478
e 293 943
e 293 805
e 293 835
e 293 918
e 293 828
e 294 839
e 294 712
e 294 562
e 294 512
e 294 537
e 299 620
e 299 395
e 299 596
e 299 616
e 300 712
e 300 558
e 300 561
e 301 741
e 301 796
e 301 313
e 301 868
e 302 685
e 302 442
e 302 544
e 302 668
e 302 336
e 303 831
e 303 359
e 306 503
e 306 336
e 306 815
e 307 577
e 307 714
e 309 945
e 309 541
e 309 555
e 310 523
e 310 356
e 311 952
e 311 773
e 311 316
e 311 446
e 313 781
e 313 383
e 314 815
e 314 594
e 314 929
e 316 372
e 316 906
e 316 396
e 316 1000
e 317 580
e 317 702
e 317 857
e 317 491
e 317 878
e 317 553
e 319 808
e 319 377
e 319 563
e 321 825
e 321 511
e 322 706
e 322 746
e 322 481
e 324 774
e 324 889
e 324 338
e 324 553
e 324 442
e 326 625
e 326 482
e 327 508
e 327 690
e 327 514
e 327 959
e 327 864
e 328 690
e 328 702
e 328 957
e 328 611
e 329 393
e 329 808
e 330 859
e 330 549
e 330 987
e 330 750
e 330 815
e 331 380
e 332 911
e 332 832
e 332 819
e 332 894
e 333 724
e 333 905
e 334 672
e 334 864
e 334 785
e 334 908
e 335 600
e 335 1000
e 336 621
e 337 532
e 337 552
e 337 544
e 338 637
e 338 363
e 338 691
e 338 833
e 339 942
e 339 676
e 339 926
e 340 368
e 342 605
e 342 841
e 342 462
e 343 788
e 343 552
e 343 911
e 343 828
e 343 907
e 344 478
e 344 431
e 344 366
e 344 363
e 345 353
e 345 656
e 345 762
e 345 864
e 345 770
e 345 925
e 345 991
e 345 965
e 347 557
e 347 934
e 348 388
e 348 465
e 348 462
e 348 488
e 350 911
e 350 386
e 350 997
e 350 627
e 350 494
e 351 511
e 351 460
e 351 666
e 351 414
e 352 534
e 352 923
e 353 576
e 354 512
e 354 700
e 354 869
e 354 588
e 355 688
e 355 755
e 355 379
e 355 970
e 355 477
e 355 929
e 356 639
e 356 481
e 356 599
e 356 548
e 357 679
e 357 808
e 357 817
e 357 522
e 357 500
e 358 652
e 358 371
e 359 649
e 359 943
e 360 854
e 360 783
e 360 965
e 361 787
e 361 620
e 362 383
e 362 570
e 362 657
e 363 543
e 366 700
e 366 574
e 366 664
e 368 700
e 368 699
e 368 722
e 369 860
e 369 451
e 369 943
e 371 614
e 371 884
e 372 497
e 373 557
e 373 453
e 373 750
e 373 552
e 374 959
e 376 955
e 377 440
e 377 846
e 377 449
e 378 772
e 378 684
e 378 780
e 379 408
e 379 977
e 380 612
e 381 778
e 381 999
e 381 551
e 381 865
e 383 473
e 383 455
e 383 772
e 386 473
e 386 729
e 386 916
e 387 680
e 387 457
e 388 468
e 388 892
e 388 779
e 388 474
e 390 660
e 390 933
e 391 825
e 391 417
e 391 734
e 391 970
e 392 846
e 393 436
e 393 497
e 393 446
e 393 612
e 395 741
e 396 946
e 396 405
e 396 543
e 396 782
e 397 839
e 397 952
e 397 445
e 397 945
e 398 750
e 398 790
e 398 779
e 399 596
e 400 644
e 400 750
e 400 409
e 400 954
e 401 647
e 402 519
e 402 542
e 403 541
e 403 661
e 403 811
e 403 691
e 404 583
e 404 941
e 404 862
e 404 904
e 404 529
e 405 668
e 408 534
e 408 680
e 408 613
e 409 782
e 409 841
e 410 562
e 410 569
e 411 761
e 411 765
e 411 672
e 412 822
e 412 710
e 412 779
e 414 690
e 414 576
e 415 884
e 415 453
e 416 684
e 416 955
e 416 746
e 417 639
e 417 762
e 418 714
e 418 583
e 418 833
e 420 681
e 420 712
e 421 686
e 421 460
e 421 678
e 421 790
e 422 943
e 422 512
e 423 798
e 423 678
e 423 542
e 424 971
e 424 627
e 424 913
e 425 448
e 425 753
e 425 957
e 425 975
e 426 579
e 426 958
e 426 654
e 426 563
e 426 847
e 428 750
e 428 996
e 428 794
e 428 989
e 429 603
e 432 545
e 432 584
e 432 786
e 432 877
e 432 766
e 434 550
e 436 951
e 436 903
e 437 971
e 437 902
e 437 604
e 438 859
e 438 651
e 438 746
e 438 888
e 440 519
e 442 818
e 443 654
e 443 883
e 444 895
e 444 625
e 444 883
e 445 876
e 445 686
e 445 849
e 446 811
e 447 739
e 447 544
e 448 863
e 448 751
e 449 671
e 451 664
e 451 967
e 452 655
e 452 614
e 453 923
e 453 464
e 455 939
e 457 978
e 457 810
e 457 505
e 457 844
e 457 814
e 457 843
e 459 736
e 459 861
e 459 673
e 459 876
e 460 841
e 460 592
e 461 882
e 461 856
e 461 981
e 462 471
e 462 789
e 463 780
e 463 557
e 464 661
e 464 553
e 465 751
e 467 555
e 467 700
e 467 863
e 468 568
e 468 766
e 468 780
e 468 801
e 468 915
e 469 481
e 469 724
e 469 936
e 471 712
e 471 808
e 471 676
e 472 559
e 472 854
e 472 906
e 472 564
e 472 841
e 473 786
e 473 975
e 473 541
e 474 918
e 474 708
e 474 907
e 475 678
e 477 654
e 477 918
e 477 613
e 477 685
e 477 531
e 477 671
e 478 955
e 478 655
e 478 811
e 480 811
e 480 616
e 480 1000
e 481 825
e 483 961
e 483 710
e 483 765
e 484 669
e 484 904
e 484 594
e 485 597
e 485 576
e 488 820
e 488 635
e 490 780
e 490 619
e 490 622
e 490 586
e 491 755
e 492 822
e 494 992
e 494 962
e 496 882
e 496 780
e 496 905
e 496 592
e 496 886
e 496 828
e 499 634
e 499 776
e 500 711
e 500 934
e 501 665
e 501 762
e 503 584
e 503 596
e 503 729
e 503 670
e 505 604
e 505 861
e 506 960
e 507 958
e 507 920
e 507 652
e 508 721
e 508 818
e 509 572
e 511 819
e 511 958
e 512 603
e 512 864
e 514 945
e 514 828
e 517 884
e 517 679
e 517 713
e 517 590
e 519 918
e 522 971
e 522 920
e 523 564
e 523 587
e 523 905
e 523 706
e 526 789
e 526 805
e 527 735
e 527 908
e 527 569
e 528 941
e 529 673
e 529 672
e 532 614
e 532 571
e 533 939
e 533 918
e 533 735
e 534 542
e 534 643
e 537 605
e 537 647
e 539 939
e 539 954
e 539 807
e 540 654
e 540 636
e 540 712
e 540 648
e 541 655
e 543 757
e 544 612
e 545 976
e 545 818
e 545 898
e 545 774
e 545 632
e 547 765
e 547 625
e 547 580
e 548 692
e 548 998
e 549 647
e 549 844
e 549 757
e 550 836
e 550 825
e 550 711
e 551 751
e 551 590
e 552 866
e 552 652
e 552 742
e 552 621
e 553 686
e 554 765
e 554 610
e 555 844
e 555 706
e 555 820
e 557 699
e 559 875
e 561 756
e 561 637
e 561 666
e 561 809
e 563 833
e 564 645
e 564 672
e 568 961
e 568 810
e 568 677
e 568 927
e 569 669
e 569 863
e 570 731
e 570 935
e 570 842
e 571 706
e 571 679
e 572 832
e 573 577
e 573 643
e 575 894
e 575 945
e 576 805
e 576 713
e 576 975
e 577 670
e 578 681
e 579 847
e 579 699
e 579 789
e 579 822
e 580 867
e 580 908
e 583 878
e 583 851
e 583 798
e 584 927
e 584 908
e 585 720
e 585 657
e 585 670
e 586 864
e 586 611
e 586 903
e 587 982
e 587 902
e 588 714
e 588 773
e 588 656
e 589 689
e 589 722
e 589 595
e 590 598
e 590 616
e 592 982
e 592 692
e 593 822
e 593 892
e 593 979
e 594 792
e 594 689
e 594 729
e 595 822
e 595 706
e 595 925
e 596 603
e 596 941
e 597 774
e 598 726
e 598 632
e 599 837
e 599 718
e 599 804
e 599 979
e 600 613
e 600 868
e 603 712
e 604 829
e 604 611
e 606 974
e 607 962
e 607 781
e 607 794
e 607 765
e 610 975
e 610 886
e 610 892
e 610 794
e 611 828
e 611 895
e 611 829
e 612 730
e 612 724
e 613 649
e 614 666
e 616 829
e 617 831
e 617 765
e 618 831
e 618 619
e 619 684
e 620 673
e 620 821
e 621 898
e 621 681
e 621 689
e 621 774
e 622 903
e 622 942
e 624 882
e 624 710
e 625 882
e 625 662
e 625 955
e 626 952
e 626 779
e 626 867
e 627 876
e 627 864
e 630 929
e 630 699
e 630 713
e 630 975
e 631 841
e 631 971
e 632 779
e 632 786
e 634 819
e 634 789
e 634 766
e 634 756
e 635 996
e 635 883
e 636 904
e 636 736
e 636 913
e 637 859
e 637 927
e 638 806
e 638 999
e 638 695
e 643 829
e 644 730
e 644 933
e 645 869
e 645 829
e 646 712
e 646 730
e 648 868
e 648 749
e 651 934
e 651 660
e 652 975
e 654 978
e 654 884
e 655 720
e 655 926
e 655 877
e 656 734
e 657 819
e 660 661
e 661 721
e 662 727
e 664 980
e 664 991
e 665 867
e 665 839
e 666 735
e 668 811
e 670 759
e 671 929
e 671 887
e 672 952
e 672 983
e 673 817
e 673 887
e 674 755
e 674 757
e 676 688
e 677 879
e 677 905
e 677 757
e 678 982
e 678 744
e 679 738
e 679 804
e 679 744
e 679 712
e 680 749
e 681 877
e 683 970
e 684 843
e 684 1000
e 684 980
e 685 693
e 690 815
e 691 933
e 693 900
e 695 776
e 696 996
e 696 796
e 696 962
e 699 847
e 700 905
e 700 954
e 706 991
e 706 974
e 708 998
e 709 988
e 709 888
e 709 946
e 711 731
e 712 817
e 713 860
e 716 974
e 716 832
e 718 822
e 718 740
e 720 826
e 720 996
e 721 772
e 721 879
e 721 740
e 721 824
e 724 892
e 724 962
e 726 959
e 726 763
e 726 961
e 726 818
e 727 997
e 728 743
e 729 822
e 730 907
e 730 755
e 731 846
e 731 911
e 734 835
e 735 832
e 736 994
e 740 911
e 740 749
e 741 765
e 741 872
e 742 979
e 742 997
e 742 782
e 743 861
e 744 785
e 746 927
e 749 996
e 750 953
e 750 831
e 751 953
e 753 783
e 755 982
e 756 945
e 757 957
e 757 768
e 759 900
e 759 913
e 760 926
e 761 808
e 763 952
e 763 989
e 765 766
e 766 865
e 768 961
e 770 945
e 770 806
e 773 936
e 773 967
e 776 903
e 778 977
e 779 875
e 780 879
e 781 869
e 782 917
e 783 849
e 785 809
e 788 804
e 788 863
e 788 877
e 788 820
e 788 834
e 789 895
e 789 831
e 790 835
e 790 823
e 792 911
e 795 924
e 797 803
e 800 1000
e 803 843
e 803 837
e 803 876
e 804 901
e 804 851
e 805 945
e 808 823
e 808 847
e 809 947
e 810 908
e 810 925
e 811 892
e 814 837
e 814 935
e 814 936
e 815 911
e 818 936
e 819 933
e 820 833
e 821 834
e 825 988
e 826 902
e 826 918
e 831 906
e 834 862
e 839 953
e 841 867
e 841 945
e 842 996
e 843 926
e 843 852
e 846 915
e 846 867
e 847 868
e 852 967
e 854 974
e 854 992
e 857 879
e 858 994
e 859 865
e 861 961
e 862 909
e 865 947
e 865 866
e 877 962
e 879 971
e 882 896
e 883 951
e 886 910
e 887 892
e 888 975
e 889 981
e 889 934
e 892 896
e 898 997
e 906 994
e 908 996
e 909 948
e 923 948
e 926 958
e 927 948
e 933 974
e 934 965
e 947 948
e 947 1000
e 953 999
e 955 960
e 957 959
e 957 965
e 960 994
e 968 987
e 976 987
