txt_Ins/graph-1000-698.txt
n 1000
e 0 634
e 0 261
e 0 868
e 0 185
e 1 858
e 1 26
e 1 598
e 1 999
e 2 182
e 2 415
e 2 734
e 2 919
e 2 413
e 2 910
e 2 54
e 3 656
e 3 55
e 3 168
e 3 773
e 4 754
e 4 433
e 4 375
e 4 460
e 4 859
e 4 940
e 6 257
e 6 252
e 6 720
e 6 347
e 9 359
e 9 139
e 9 125
e 9 357
e 9 699
e 10 454
e 10 239
e 10 804
e 10 37
e 11 100
e 11 454
e 11 725
e 11 773
e 12 689
e 12 610
e 12 238
e 12 325
e 12 342
e 13 54
e 13 38
e 13 425
e 13 909
e 13 349
e 13 772
e 15 727
e 15 669
e 15 467
e 15 60
e 15 291
e 15 396
e 15 20
e 16 950
e 16 462
e 16 634
e 16 680
e 16 311
e 16 656
e 16 786
e 16 653
e 16 850
e 17 518
e 17 493
e 17 646
e 17 430
e 17 850
e 17 915
e 17 604
e 19 953
e 19 633
e 19 290
e 19 855
e 19 538
e 19 544
e 20 275
e 20 534
e 20 574
e 20 717
e 20 806
e 20 885
e 20 207
e 20 129
e 20 796
e 21 474
e 21 699
e 21 922
e 21 900
e 21 531
e 23 860
e 23 474
e 23 750
e 23 490
e 23 115
e 25 145
e 25 106
e 25 353
e 25 991
e 26 462
e 26 542
e 26 843
e 26 114
e 26 586
e 27 175
e 27 330
e 27 661
e 27 914
e 28 934
e 28 437
e 28 47
e 28 878
e 28 428
e 29 959
e 29 710
e 29 311
e 29 805
e 30 298
e 30 457
e 30 726
e 30 239
e 30 865
e 30 656
e 30 81
e 31 241
e 31 169
e 31 188
e 32 505
e 32 400
e 32 359
e 32 998
e 33 483
e 33 352
e 33 409
e 33 947
e 33 659
e 34 986
e 34 346
e 34 810
e 34 86
e 34 807
e 34 508
e 34 630
e 35 941
e 35 457
e 35 260
e 36 484
e 36 221
e 36 323
e 36 576
e 36 611
e 36 823
e 36 926
e 37 579
e 37 725
e 37 572
e 37 894
e 37 796
e 37 192
e 38 571
e 38 235
e 38 315
e 39 333
e 39 877
e 39 435
e 42 301
e 42 168
e 42 752
e 42 750
e 42 534
e 42 121
e 44 944
e 44 708
e 44 771
e 44 170
e 44 711
e 45 161
e 45 701
e 45 284
e 47 443
e 47 127
e 47 589
e 48 833
e 48 960
e 48 422
e 48 677
e 48 923
e 49 238
e 49 126
e 49 291
e 50 176
e 50 750
e 50 670
e 50 855
e 50 433
e 52 926
e 52 275
e 52 656
e 52 461
e 52 53
e 52 172
e 52 631
e 53 711
e 53 222
e 53 712
e 53 932
e 54 745
e 55 531
e 55 409
e 57 195
e 57 420
e 57 113
e 57 785
e 57 725
e 58 357
e 58 616
e 58 397
e 59 805
e 59 573
e 59 553
e 59 692
e 60 448
e 60 159
e 61 250
e 61 241
e 61 765
e 61 254
e 62 803
e 62 728
e 62 914
e 62 900
e 62 395
e 63 957
e 63 908
e 63 430
e 63 694
e 63 164
e 63 141
e 63 712
e 63 443
e 64 284
e 64 560
e 64 800
e 65 552
e 65 602
e 65 977
e 65 647
e 65 356
e 65 204
e 65 458
e 66 531
e 66 609
e 66 421
e 69 552
e 69 316
e 69 499
e 69 255
e 69 97
e 69 214
e 70 356
e 70 547
e 70 848
e 70 328
e 70 631
e 72 919
e 72 932
e 72 773
e 72 392
e 72 398
e 72 268
e 73 134
e 73 803
e 73 715
e 75 159
e 75 533
e 75 150
e 77 612
e 77 572
e 77 855
e 77 376
e 81 176
e 81 502
e 81 687
e 81 980
e 82 325
e 82 300
e 82 626
e 83 491
e 83 86
e 83 232
e 83 493
e 84 531
e 84 975
e 84 333
e 84 359
e 84 103
e 84 617
e 85 496
e 85 424
e 85 510
e 86 205
e 86 633
e 86 813
e 86 980
e 87 431
e 87 967
e 87 205
e 87 899
e 87 803
e 87 179
e 88 484
e 88 378
e 88 165
e 89 150
e 89 149
e 89 624
e 89 795
e 90 480
e 90 244
e 90 536
e 90 380
e 91 998
e 91 504
e 91 777
e 92 976
e 92 596
e 92 371
e 92 749
e 93 228
e 93 203
e 93 225
e 95 772
e 95 402
e 95 915
e 96 315
e 96 203
e 96 446
e 97 659
e 97 270
e 97 974
e 97 759
e 99 151
e 99 840
e 99 800
e 99 462
e 99 164
e 99 329
e 99 257
e 99 562
e 99 745
e 100 769
e 100 196
e 100 461
e 100 785
e 102 489
e 102 750
e 102 634
e 102 550
e 103 476
e 103 360
e 103 379
e 103 271
e 104 193
e 104 332
e 104 952
e 105 977
e 105 506
e 105 905
e 105 767
e 105 328
e 106 778
e 106 442
e 106 654
e 109 427
e 109 290
e 109 683
e 109 538
e 109 982
e 109 651
e 111 420
e 111 727
e 111 269
e 112 777
e 112 799
e 112 761
e 112 166
e 112 668
e 112 541
e 113 923
e 113 687
e 113 817
e 114 557
e 114 749
e 114 849
e 115 302
e 115 982
e 115 293
e 116 814
e 116 843
e 116 190
e 117 351
e 117 835
e 117 527
e 120 831
e 120 172
e 120 311
e 120 758
e 121 825
e 121 179
e 122 312
e 122 331
e 122 358
e 125 193
e 125 373
e 125 799
e 125 987
e 125 604
e 125 953
e 125 951
e 126 713
e 126 904
e 126 481
e 126 330
e 127 343
e 127 786
e 128 952
e 128 797
e 128 175
e 129 507
e 129 944
e 129 444
e 129 146
e 129 758
e 130 416
e 130 315
e 130 414
e 130 595
e 130 325
e 130 605
e 134 748
e 134 617
e 134 325
e 134 334
e 135 969
e 135 917
e 135 750
e 135 851
e 137 441
e 137 601
e 137 320
e 139 305
e 139 935
e 139 820
e 139 626
e 141 170
e 141 682
e 141 227
e 141 788
e 142 857
e 142 573
e 142 462
e 142 993
e 143 735
e 143 926
e 143 280
e 144 934
e 144 445
e 144 212
e 145 638
e 145 331
e 146 243
e 146 182
e 147 807
e 147 407
e 147 991
e 147 164
e 147 433
e 147 862
e 148 184
e 148 457
e 148 740
e 148 841
e 149 905
e 149 252
e 149 877
e 149 743
e 150 883
e 151 505
e 151 481
e 151 856
e 151 262
e 151 228
e 151 302
e 151 431
e 153 670
e 153 951
e 153 338
e 153 682
e 153 309
e 153 401
e 153 742
e 154 404
e 154 373
e 154 820
e 154 719
e 154 924
e 154 672
e 154 987
e 156 232
e 156 354
e 156 269
e 156 926
e 156 791
e 157 643
e 157 532
e 157 403
e 158 391
e 158 531
e 158 481
e 158 270
e 159 787
e 159 508
e 159 950
e 160 347
e 160 679
e 160 601
e 160 738
e 161 764
e 161 924
e 161 376
e 161 866
e 163 437
e 163 443
e 163 428
e 164 425
e 164 881
e 164 944
e 164 999
e 165 956
e 165 424
e 165 422
e 165 862
e 166 203
e 166 800
e 166 544
e 166 726
e 166 589
e 166 372
e 168 682
e 168 216
e 168 525
e 168 743
e 169 506
e 169 410
e 169 530
e 169 286
e 170 214
e 170 444
e 171 573
e 171 737
e 171 577
e 171 178
e 171 995
e 171 773
e 171 606
e 172 370
e 172 864
e 175 335
e 175 975
e 176 637
e 176 306
e 176 452
e 176 271
e 176 630
e 176 281
e 177 849
e 177 648
e 177 814
e 177 350
e 177 793
e 178 940
e 178 900
e 178 823
e 178 571
e 179 745
e 182 682
e 182 582
e 183 664
e 183 818
e 183 391
e 183 371
e 183 840
e 184 914
e 184 420
e 185 733
e 185 810
e 185 822
e 186 187
e 186 260
e 186 573
e 187 371
e 187 321
e 187 871
e 187 476
e 188 995
e 188 466
e 188 370
e 189 881
e 189 945
e 189 678
e 190 563
e 190 193
e 190 343
e 190 862
e 190 619
e 190 212
e 192 201
e 192 260
e 193 456
e 193 544
e 195 262
e 195 573
e 195 410
e 196 274
e 196 813
e 196 411
e 196 204
e 197 597
e 197 306
e 197 707
e 197 339
e 199 759
e 199 200
e 199 255
e 199 708
e 199 606
e 199 821
e 199 654
e 200 667
e 200 705
e 201 871
e 201 611
e 203 583
e 203 443
e 203 941
e 203 817
e 203 598
e 204 978
e 204 738
e 204 979
e 204 605
e 205 601
e 205 273
e 205 664
e 205 353
e 205 900
e 205 471
e 205 380
e 205 228
e 207 447
e 207 593
e 208 407
e 208 419
e 208 678
e 209 531
e 209 885
e 209 385
e 209 707
e 210 530
e 210 396
e 210 346
e 212 710
e 212 227
e 212 663
e 212 794
e 213 610
e 213 495
e 213 330
e 213 997
e 213 251
e 214 285
e 214 611
e 214 625
e 214 571
e 214 988
e 216 490
e 216 888
e 216 280
e 217 574
e 217 306
e 217 725
e 220 838
e 220 375
e 220 616
e 220 618
e 221 809
e 221 458
e 221 924
e 222 673
e 222 534
e 222 260
e 223 225
e 223 857
e 223 630
e 223 367
e 223 306
e 224 916
e 224 964
e 224 328
e 224 665
e 225 619
e 225 335
e 225 849
e 225 603
e 225 899
e 226 400
e 226 967
e 226 254
e 226 942
e 227 526
e 227 876
e 227 441
e 228 675
e 228 604
e 231 721
e 231 648
e 231 885
e 231 285
e 232 277
e 232 850
e 235 588
e 235 574
e 235 341
e 235 250
e 235 954
e 235 435
e 236 932
e 236 630
e 236 941
e 236 806
e 236 741
e 237 521
e 237 806
e 237 321
e 237 266
e 238 389
e 238 772
e 238 998
e 238 609
e 238 446
e 239 998
e 239 979
e 239 888
e 239 526
e 239 563
e 241 413
e 241 251
e 241 940
e 242 502
e 242 507
e 242 634
e 242 814
e 242 442
e 243 474
e 243 651
e 243 518
e 243 940
e 244 397
e 244 477
e 244 490
e 244 900
e 245 701
e 245 667
e 245 642
e 245 730
e 247 480
e 247 354
e 247 778
e 247 813
e 250 599
e 250 893
e 250 857
e 251 683
e 251 444
e 251 867
e 251 845
e 251 645
e 252 498
e 252 424
e 252 489
e 253 557
e 253 386
e 253 493
e 253 800
e 254 496
e 254 320
e 255 635
e 255 857
e 257 874
e 257 602
e 258 616
e 258 599
e 258 427
e 258 596
e 260 916
e 261 439
e 261 414
e 261 269
e 261 705
e 262 398
e 262 835
e 264 644
e 264 542
e 264 415
e 266 305
e 266 894
e 266 343
e 266 761
e 268 464
e 268 711
e 269 799
e 269 742
e 269 305
e 270 561
e 270 525
e 270 413
e 271 327
e 271 616
e 271 283
e 271 687
e 272 308
e 272 411
e 272 909
e 272 339
e 272 760
e 273 277
e 273 500
e 273 612
e 273 462
e 273 935
e 274 623
e 274 446
e 274 708
e 275 813
e 275 737
e 275 394
e 275 987
e 276 794
e 276 853
e 276 558
e 277 491
e 277 772
e 277 725
e 279 360
e 279 856
e 279 680
e 280 332
e 280 344
e 280 343
e 280 612
e 281 694
e 281 594
e 281 595
e 281 895
e 281 625
e 281 431
e 281 710
e 281 560
e 283 379
e 283 367
e 283 760
e 283 742
e 283 577
e 283 436
e 283 527
e 284 392
e 284 347
e 285 458
e 285 970
e 285 660
e 285 526
e 286 508
e 286 450
e 286 689
e 286 957
e 286 806
e 286 978
e 286 691
e 286 895
e 287 591
e 287 476
e 287 859
e 287 482
e 289 941
e 289 560
e 289 940
e 290 451
e 290 773
e 291 477
e 292 942
e 292 804
e 292 834
e 292 917
e 292 827
e 293 838
e 293 711
e 293 561
e 293 511
e 293 536
e 298 619
e 298 394
e 298 595
e 298 615
e 299 711
e 299 557
e 299 560
e 300 740
e 300 795
e 300 312
e 300 867
e 301 684
e 301 441
e 301 543
e 301 667
e 301 335
e 302 830
e 302 358
e 305 502
e 305 335
e 305 814
e 306 576
e 306 713
e 308 944
e 308 540
e 308 554
e 309 522
e 309 355
e 310 951
e 310 772
e 310 315
e 310 445
e 312 780
e 312 382
e 313 814
e 313 593
e 313 928
e 315 371
e 315 905
e 315 395
e 315 999
e 316 579
e 316 701
e 316 856
e 316 490
e 316 877
e 316 552
e 318 807
e 318 376
e 318 562
e 320 824
e 320 510
e 321 705
e 321 745
e 321 480
e 323 773
e 323 888
e 323 337
e 323 552
e 323 441
e 325 624
e 325 481
e 326 507
e 326 689
e 326 513
e 326 958
e 326 863
e 327 689
e 327 701
e 327 956
e 327 610
e 328 392
e 328 807
e 329 858
e 329 548
e 329 986
e 329 749
e 329 814
e 330 379
e 331 910
e 331 831
e 331 818
e 331 893
e 332 723
e 332 904
e 333 671
e 333 863
e 333 784
e 333 907
e 334 599
e 334 999
e 335 620
e 336 531
e 336 551
e 336 543
e 337 636
e 337 362
e 337 690
e 337 832
e 338 941
e 338 675
e 338 925
e 339 367
e 341 604
e 341 840
e 341 461
e 342 787
e 342 551
e 342 910
e 342 827
e 342 906
e 343 477
e 343 430
e 343 365
e 343 362
e 344 352
e 344 655
e 344 761
e 344 863
e 344 769
e 344 924
e 344 990
e 344 964
e 346 556
e 346 933
e 347 387
e 347 464
e 347 461
e 347 487
e 349 910
e 349 385
e 349 996
e 349 626
e 349 493
e 350 510
e 350 459
e 350 665
e 350 413
e 351 533
e 351 922
e 352 575
e 353 511
e 353 699
e 353 868
e 353 587
e 354 687
e 354 754
e 354 378
e 354 969
e 354 476
e 354 928
e 355 638
e 355 480
e 355 598
e 355 547
e 356 678
e 356 807
e 356 816
e 356 521
e 356 499
e 357 651
e 357 370
e 358 648
e 358 942
e 359 853
e 359 782
e 359 964
e 360 786
e 360 619
e 361 382
e 361 569
e 361 656
e 362 542
e 365 699
e 365 573
e 365 663
e 367 699
e 367 698
e 367 721
e 368 859
e 368 450
e 368 942
e 370 613
e 370 883
e 371 496
e 372 556
e 372 452
e 372 749
e 372 551
e 373 958
e 375 954
e 376 439
e 376 845
e 376 448
e 377 771
e 377 683
e 377 779
e 378 407
e 378 976
e 379 611
e 380 777
e 380 998
e 380 550
e 380 864
e 382 472
e 382 454
e 382 771
e 385 472
e 385 728
e 385 915
e 386 679
e 386 456
e 387 467
e 387 891
e 387 778
e 387 473
e 389 659
e 389 932
e 390 824
e 390 416
e 390 733
e 390 969
e 391 845
e 392 435
e 392 496
e 392 445
e 392 611
e 394 740
e 395 945
e 395 404
e 395 542
e 395 781
e 396 838
e 396 951
e 396 444
e 396 944
e 397 749
e 397 789
e 397 778
e 398 595
e 399 643
e 399 749
e 399 408
e 399 953
e 400 646
e 401 518
e 401 541
e 402 540
e 402 660
e 402 810
e 402 690
e 403 582
e 403 940
e 403 861
e 403 903
e 403 528
e 404 667
e 407 533
e 407 679
e 407 612
e 408 781
e 408 840
e 409 561
e 409 568
e 410 760
e 410 764
e 410 671
e 411 821
e 411 709
e 411 778
e 413 689
e 413 575
e 414 883
e 414 452
e 415 683
e 415 954
e 415 745
e 416 638
e 416 761
e 417 713
e 417 582
e 417 832
e 419 680
e 419 711
e 420 685
e 420 459
e 420 677
e 420 789
e 421 942
e 421 511
e 422 797
e 422 677
e 422 541
e 423 970
e 423 626
e 423 912
e 424 447
e 424 752
e 424 956
e 424 974
e 425 578
e 425 957
e 425 653
e 425 562
e 425 846
e 427 749
e 427 995
e 427 793
e 427 988
e 428 602
e 431 544
e 431 583
e 431 785
e 431 876
e 431 765
e 433 549
e 435 950
e 435 902
e 436 970
e 436 901
e 436 603
e 437 858
e 437 650
e 437 745
e 437 887
e 439 518
e 441 817
e 442 653
e 442 882
e 443 894
e 443 624
e 443 882
e 444 875
e 444 685
e 444 848
e 445 810
e 446 738
e 446 543
e 447 862
e 447 750
e 448 670
e 450 663
e 450 966
e 451 654
e 451 613
e 452 922
e 452 463
e 454 938
e 456 977
e 456 809
e 456 504
e 456 843
e 456 813
e 456 842
e 458 735
e 458 860
e 458 672
e 458 875
e 459 840
e 459 591
e 460 881
e 460 855
e 460 980
e 461 470
e 461 788
e 462 779
e 462 556
e 463 660
e 463 552
e 464 750
e 466 554
e 466 699
e 466 862
e 467 567
e 467 765
e 467 779
e 467 800
e 467 914
e 468 480
e 468 723
e 468 935
e 470 711
e 470 807
e 470 675
e 471 558
e 471 853
e 471 905
e 471 563
e 471 840
e 472 785
e 472 974
e 472 540
e 473 917
e 473 707
e 473 906
e 474 677
e 476 653
e 476 917
e 476 612
e 476 684
e 476 530
e 476 670
e 477 954
e 477 654
e 477 810
e 479 810
e 479 615
e 479 999
e 480 824
e 482 960
e 482 709
e 482 764
e 483 668
e 483 903
e 483 593
e 484 596
e 484 575
e 487 819
e 487 634
e 489 779
e 489 618
e 489 621
e 489 585
e 490 754
e 491 821
e 493 991
e 493 961
e 495 881
e 495 779
e 495 904
e 495 591
e 495 885
e 495 827
e 498 633
e 498 775
e 499 710
e 499 933
e 500 664
e 500 761
e 502 583
e 502 595
e 502 728
e 502 669
e 504 603
e 504 860
e 505 959
e 506 957
e 506 919
e 506 651
e 507 720
e 507 817
e 508 571
e 510 818
e 510 957
e 511 602
e 511 863
e 513 944
e 513 827
e 516 883
e 516 678
e 516 712
e 516 589
e 518 917
e 521 970
e 521 919
e 522 563
e 522 586
e 522 904
e 522 705
e 525 788
e 525 804
e 526 734
e 526 907
e 526 568
e 527 940
e 528 672
e 528 671
e 531 613
e 531 570
e 532 938
e 532 917
e 532 734
e 533 541
e 533 642
e 536 604
e 536 646
e 538 938
e 538 953
e 538 806
e 539 653
e 539 635
e 539 711
e 539 647
e 540 654
e 542 756
e 543 611
e 544 975
e 544 817
e 544 897
e 544 773
e 544 631
e 546 764
e 546 624
e 546 579
e 547 691
e 547 997
e 548 646
e 548 843
e 548 756
e 549 835
e 549 824
e 549 710
e 550 750
e 550 589
e 551 865
e 551 651
e 551 741
e 551 620
e 552 685
e 553 764
e 553 609
e 554 843
e 554 705
e 554 819
e 556 698
e 558 874
e 560 755
e 560 636
e 560 665
e 560 808
e 562 832
e 563 644
e 563 671
e 567 960
e 567 809
e 567 676
e 567 926
e 568 668
e 568 862
e 569 730
e 569 934
e 569 841
e 570 705
e 570 678
e 571 831
e 572 576
e 572 642
e 574 893
e 574 944
e 575 804
e 575 712
e 575 974
e 576 669
e 577 680
e 578 846
e 578 698
e 578 788
e 578 821
e 579 866
e 579 907
e 582 877
e 582 850
e 582 797
e 583 926
e 583 907
e 584 719
e 584 656
e 584 669
e 585 863
e 585 610
e 585 902
e 586 981
e 586 901
e 587 713
e 587 772
e 587 655
e 588 688
e 588 721
e 588 594
e 589 597
e 589 615
e 591 981
e 591 691
e 592 821
e 592 891
e 592 978
e 593 791
e 593 688
e 593 728
e 594 821
e 594 705
e 594 924
e 595 602
e 595 940
e 596 773
e 597 725
e 597 631
e 598 836
e 598 717
e 598 803
e 598 978
e 599 612
e 599 867
e 602 711
e 603 828
e 603 610
e 605 973
e 606 961
e 606 780
e 606 793
e 606 764
e 609 974
e 609 885
e 609 891
e 609 793
e 610 827
e 610 894
e 610 828
e 611 729
e 611 723
e 612 648
e 613 665
e 615 828
e 616 830
e 616 764
e 617 830
e 617 618
e 618 683
e 619 672
e 619 820
e 620 897
e 620 680
e 620 688
e 620 773
e 621 902
e 621 941
e 623 881
e 623 709
e 624 881
e 624 661
e 624 954
e 625 951
e 625 778
e 625 866
e 626 875
e 626 863
e 629 928
e 629 698
e 629 712
e 629 974
e 630 840
e 630 970
e 631 778
e 631 785
e 633 818
e 633 788
e 633 765
e 633 755
e 634 995
e 634 882
e 635 903
e 635 735
e 635 912
e 636 858
e 636 926
e 637 805
e 637 998
e 637 694
e 642 828
e 643 729
e 643 932
e 644 868
e 644 828
e 645 711
e 645 729
e 647 867
e 647 748
e 650 933
e 650 659
e 651 974
e 653 977
e 653 883
e 654 719
e 654 925
e 654 876
e 655 733
e 656 818
e 659 660
e 660 720
e 661 726
e 663 979
e 663 990
e 664 866
e 664 838
e 665 734
e 667 810
e 669 758
e 670 928
e 670 886
e 671 951
e 671 982
e 672 816
e 672 886
e 673 754
e 673 756
e 675 687
e 676 878
e 676 904
e 676 756
e 677 981
e 677 743
e 678 737
e 678 803
e 678 743
e 678 711
e 679 748
e 680 876
e 682 969
e 683 842
e 683 999
e 683 979
e 684 692
e 689 814
e 690 932
e 692 899
e 694 775
e 695 995
e 695 795
e 695 961
e 698 846
e 699 904
e 699 953
e 705 990
e 705 973
e 707 997
e 708 987
e 708 887
e 708 945
e 710 730
e 711 816
e 712 859
e 715 973
e 715 831
e 717 821
e 717 739
e 719 825
e 719 995
e 720 771
e 720 878
e 720 739
e 720 823
e 723 891
e 723 961
e 725 958
e 725 762
e 725 960
e 725 817
e 726 996
e 727 742
e 728 821
e 729 906
e 729 754
e 730 845
e 730 910
e 733 834
e 734 831
e 735 993
e 739 910
e 739 748
e 740 764
e 740 871
e 741 978
e 741 996
e 741 781
e 742 860
e 743 784
e 745 926
e 748 995
e 749 952
e 749 830
e 750 952
e 752 782
e 754 981
e 755 944
e 756 956
e 756 767
e 758 899
e 758 912
e 759 925
e 760 807
e 762 951
e 762 988
e 764 765
e 765 864
e 767 960
e 769 944
e 769 805
e 772 935
e 772 966
e 775 902
e 777 976
e 778 874
e 779 878
e 780 868
e 781 916
e 782 848
e 784 808
e 787 803
e 787 862
e 787 876
e 787 819
e 787 833
e 788 894
e 788 830
e 789 834
e 789 822
e 791 910
e 794 923
e 796 802
e 799 999
e 802 842
e 802 836
e 802 875
e 803 900
e 803 850
e 804 944
e 807 822
e 807 846
e 808 946
e 809 907
e 809 924
e 810 891
e 813 836
e 813 934
e 813 935
e 814 910
e 817 935
e 818 932
e 819 832
e 820 833
e 824 987
e 825 901
e 825 917
e 830 905
e 833 861
e 838 952
e 840 866
e 840 944
e 841 995
e 842 925
e 842 851
e 845 914
e 845 866
e 846 867
e 851 966
e 853 973
e 853 991
e 856 878
e 857 993
e 858 864
e 860 960
e 861 908
e 864 946
e 864 865
e 876 961
e 878 970
e 881 895
e 882 950
e 885 909
e 886 891
e 887 974
e 888 980
e 888 933
e 891 895
e 897 996
e 905 993
e 907 995
e 908 947
e 922 947
e 925 957
e 926 947
e 932 973
e 933 964
e 946 947
e 946 999
e 952 998
e 954 959
e 956 958
e 956 964
e 959 993
e 967 986
e 975 986
